UBC_100_7.txt

VEHICLE     CAPACITY  LOCATIONS  CUSTOMER  OPTIONS  PRIORITIES  NUMTYPS
10		400		105		100		200		3		4

CUSTOMER  DEMAND
0	 14
1	 17
2	 14
3	 11
4	 11
5	 16
6	 16
7	 11
8	 10
9	 12
10	 12
11	 12
12	 16
13	 18
14	 15
15	 19
16	 16
17	 19
18	 10
19	 12
20	 18
21	 12
22	 19
23	 20
24	 11
25	 17
26	 18
27	 10
28	 15
29	 14
30	 12
31	 17
32	 17
33	 18
34	 12
35	 20
36	 15
37	 14
38	 17
39	 17
40	 15
41	 13
42	 14
43	 16
44	 10
45	 13
46	 15
47	 13
48	 17
49	 13
50	 20
51	 11
52	 13
53	 16
54	 17
55	 17
56	 10
57	 16
58	 19
59	 12
60	 10
61	 11
62	 15
63	 14
64	 17
65	 20
66	 19
67	 10
68	 17
69	 12
70	 13
71	 12
72	 12
73	 17
74	 12
75	 16
76	 19
77	 12
78	 13
79	 14
80	 17
81	 11
82	 11
83	 13
84	 13
85	 10
86	 12
87	 13
88	 10
89	 13
90	 11
91	 15
92	 18
93	 15
94	 13
95	 12
96	 11
97	 17
98	 13
99	 15

LOCATION  XCOORD  YCOORD  CAP  READY  DUE  TYP  SERVICETIME
0		12		19		-1		0		720	 0		0
1		50		15		-1		553		673		 2		6
2		4		49		-1		0		360		 2		6
3		29		25		-1		483		603		 2		6
4		29		1		-1		360		720		 2		6
5		17		49		-1		106		226		 2		6
6		40		6		-1		398		518		 2		6
7		42		7		-1		0		360		 2		6
8		46		4		-1		360		720		 2		6
9		27		47		-1		173		293		 2		6
10		47		49		-1		488		608		 2		6
11		15		42		-1		421		541		 2		6
12		11		33		-1		360		720		 2		6
13		3		41		-1		522		642		 2		6
14		9		49		-1		0		360		 2		6
15		32		42		-1		216		456		 2		6
16		12		14		-1		0		360		 2		6
17		33		7		-1		360		720		 2		6
18		35		21		-1		114		354		 2		6
19		27		44		-1		232		352		 2		6
20		36		36		-1		0		360		 2		6
21		46		24		-1		360		720		 2		6
22		25		45		-1		0		360		 2		6
23		19		45		-1		129		249		 2		6
24		21		17		-1		115		355		 2		6
25		30		44		-1		468		588		 2		6
26		40		25		-1		0		360		 2		6
27		7		1		-1		137		377		 2		6
28		9		49		-1		360		720		 2		6
29		46		22		-1		0		360		 2		6
30		15		48		-1		412		532		 2		6
31		26		48		-1		0		360		 2		6
32		33		20		-1		409		529		 2		6
33		18		3		-1		0		360		 2		6
34		15		42		-1		0		360		 2		6
35		13		35		-1		95		215		 2		6
36		40		15		-1		153		273		 2		6
37		26		45		-1		0		360		 2		6
38		19		13		-1		59		179		 2		6
39		32		44		-1		0		360		 2		6
40		50		48		-1		149		389		 2		6
41		3		21		-1		0		360		 2		6
42		5		20		-1		156		396		 2		6
43		37		48		-1		522		642		 2		6
44		4		16		-1		360		720		 2		6
45		10		7		-1		81		201		 2		6
46		42		1		-1		360		720		 2		6
47		1		17		-1		0		360		 2		6
48		18		14		-1		117		357		 2		6
49		33		23		-1		44		284		 2		6
50		17		30		-1		1		121		 2		6
51		5		14		-1		209		329		 2		6
52		31		9		-1		61		181		 2		6
53		43		12		-1		440		680		 2		6
54		14		30		-1		0		360		 2		6
55		37		15		-1		360		720		 2		6
56		18		48		-1		147		267		 2		6
57		4		20		-1		31		271		 2		6
58		32		5		-1		121		241		 2		6
59		2		3		-1		588		708		 2		6
60		16		7		-1		56		176		 2		6
61		40		40		-1		578		698		 2		6
62		49		20		-1		93		213		 2		6
63		9		14		-1		575		695		 2		6
64		24		13		-1		360		720		 2		6
65		26		50		-1		139		259		 2		6
66		8		29		-1		360		720		 2		6
67		6		42		-1		360		720		 2		6
68		4		26		-1		449		689		 2		6
69		44		20		-1		272		512		 2		6
70		2		41		-1		360		720		 2		6
71		25		42		-1		134		254		 2		6
72		21		40		-1		360		720		 2		6
73		24		26		-1		360		720		 2		6
74		21		10		-1		360		720		 2		6
75		31		22		-1		0		360		 2		6
76		10		10		-1		462		702		 2		6
77		12		35		-1		126		246		 2		6
78		46		19		-1		0		360		 2		6
79		31		43		-1		197		437		 2		6
80		50		37		-1		56		296		 2		6
81		40		24		-1		345		585		 2		6
82		10		15		-1		468		708		 2		6
83		26		43		-1		397		637		 2		6
84		21		49		-1		121		241		 2		6
85		48		9		-1		21		261		 2		6
86		26		5		-1		105		225		 2		6
87		31		17		-1		360		720		 2		6
88		38		17		-1		0		360		 2		6
89		25		12		-1		186		306		 2		6
90		31		28		-1		415		535		 2		6
91		42		23		-1		0		360		 2		6
92		26		6		-1		360		720		 2		6
93		21		15		-1		0		360		 2		6
94		9		12		-1		360		720		 2		6
95		45		12		-1		360		720		 2		6
96		36		32		-1		360		720		 2		6
97		20		10		-1		152		272		 2		6
98		27		35		-1		10		130		 2		6
99		29		16		-1		584		704		 2		6
100		28		37		-1		0		360		 2		6
101		36		43		30		64		544		 1		4
102		32		20		30		224		704		 1		4
103		18		31		26		0		720		 1		4
104		8		6		30		201		681		 1		4
OPTION  LOCATION  CUSTOMER  PRIO  SERVICETIME   COST
0		104		0		0		2		0
1		103		1		0		2		0
2		101		2		0		2		0
3		101		3		0		2		0
4		102		4		0		2		0
5		103		5		0		2		0
6		103		6		0		2		0
7		102		7		0		2		0
8		101		8		0		2		0
9		103		9		0		2		0
10		104		10		0		2		0
11		102		11		0		2		0
12		101		12		0		2		0
13		103		13		0		2		0
14		103		14		0		2		0
15		103		15		0		2		0
16		103		16		0		2		0
17		104		17		0		2		0
18		104		18		0		2		0
19		102		19		0		2		0
20		1		20		0		5		0
21		2		21		0		5		0
22		3		22		0		5		0
23		4		23		0		5		0
24		5		24		0		5		0
25		6		25		0		5		0
26		7		26		0		5		0
27		8		27		0		5		0
28		9		28		0		5		0
29		10		29		0		5		0
30		11		30		0		5		0
31		12		31		0		5		0
32		13		32		0		5		0
33		14		33		0		5		0
34		15		34		0		5		0
35		16		35		0		5		0
36		17		36		0		5		0
37		18		37		0		5		0
38		19		38		0		5		0
39		20		39		0		5		0
40		21		40		1		5		0
41		104		40		0		2		0
42		22		41		0		5		0
43		101		41		1		2		0
44		23		42		0		5		0
45		104		42		1		2		0
46		24		43		0		5		0
47		101		43		1		2		0
48		25		44		1		5		0
49		104		44		0		2		0
50		26		45		1		5		0
51		101		45		0		2		0
52		27		46		1		5		0
53		102		46		0		2		0
54		28		47		0		5		0
55		104		47		1		2		0
56		29		48		1		5		0
57		103		48		0		2		0
58		30		49		1		5		0
59		101		49		0		2		0
60		31		50		1		5		0
61		102		50		0		2		0
62		32		51		0		5		0
63		103		51		1		2		0
64		33		52		1		5		0
65		101		52		0		2		0
66		34		53		0		5		0
67		103		53		1		2		0
68		35		54		0		5		0
69		102		54		1		2		0
70		36		55		0		5		0
71		102		55		1		2		0
72		37		56		1		5		0
73		103		56		0		2		0
74		38		57		0		5		0
75		104		57		1		2		0
76		39		58		1		5		0
77		103		58		0		2		0
78		40		59		0		5		0
79		104		59		1		2		0
80		41		60		2		5		0
81		102		60		0		2		0
82		104		60		1		2		0
83		42		61		2		5		0
84		101		61		0		2		0
85		103		61		1		2		0
86		43		62		1		5		0
87		104		62		0		2		0
88		101		62		2		2		0
89		44		63		2		5		0
90		102		63		0		2		0
91		104		63		1		2		0
92		45		64		0		5		0
93		104		64		2		2		0
94		101		64		1		2		0
95		46		65		2		5		0
96		104		65		0		2		0
97		103		65		1		2		0
98		47		66		2		5		0
99		104		66		0		2		0
100		102		66		1		2		0
101		48		67		1		5		0
102		104		67		2		2		0
103		103		67		0		2		0
104		49		68		2		5		0
105		102		68		1		2		0
106		103		68		0		2		0
107		50		69		2		5		0
108		104		69		0		2		0
109		101		69		1		2		0
110		51		70		2		5		0
111		104		70		1		2		0
112		103		70		0		2		0
113		52		71		1		5		0
114		103		71		2		2		0
115		104		71		0		2		0
116		53		72		1		5		0
117		103		72		0		2		0
118		101		72		2		2		0
119		54		73		1		5		0
120		102		73		2		2		0
121		104		73		0		2		0
122		55		74		1		5		0
123		103		74		2		2		0
124		102		74		0		2		0
125		56		75		0		5		0
126		102		75		2		2		0
127		101		75		1		2		0
128		57		76		0		5		0
129		103		76		1		2		0
130		101		76		2		2		0
131		58		77		1		5		0
132		104		77		0		2		0
133		103		77		2		2		0
134		59		78		0		5		0
135		102		78		1		2		0
136		103		78		2		2		0
137		60		79		2		5		0
138		103		79		1		2		0
139		104		79		0		2		0
140		61		80		0		5		0
141		62		80		2		5		0
142		101		80		1		2		0
143		63		81		1		5		0
144		64		81		2		5		0
145		102		81		0		2		0
146		65		82		0		5		0
147		66		82		2		5		0
148		103		82		1		2		0
149		67		83		2		5		0
150		68		83		1		5		0
151		103		83		0		2		0
152		69		84		2		5		0
153		70		84		0		5		0
154		104		84		1		2		0
155		71		85		2		5		0
156		72		85		0		5		0
157		102		85		1		2		0
158		73		86		2		5		0
159		74		86		0		5		0
160		103		86		1		2		0
161		75		87		1		5		0
162		76		87		0		5		0
163		104		87		2		2		0
164		77		88		1		5		0
165		78		88		0		5		0
166		101		88		2		2		0
167		79		89		1		5		0
168		80		89		2		5		0
169		104		89		0		2		0
170		81		90		0		5		0
171		82		90		1		5		0
172		103		90		2		2		0
173		83		91		1		5		0
174		84		91		2		5		0
175		104		91		0		2		0
176		85		92		2		5		0
177		86		92		1		5		0
178		103		92		0		2		0
179		87		93		0		5		0
180		88		93		2		5		0
181		104		93		1		2		0
182		89		94		2		5		0
183		90		94		0		5		0
184		103		94		1		2		0
185		91		95		0		5		0
186		92		95		1		5		0
187		101		95		2		2		0
188		93		96		2		5		0
189		94		96		1		5		0
190		102		96		0		2		0
191		95		97		1		5		0
192		96		97		0		5		0
193		103		97		2		2		0
194		97		98		1		5		0
195		98		98		2		5		0
196		101		98		0		2		0
197		99		99		2		5		0
198		100		99		1		5		0
199		102		99		0		2		0
